
List of user-set options:

                                    Name   Value                used
                           compl_inf_tol = 1                     yes
                         constr_viol_tol = 1                     yes
                            dual_inf_tol = 1000                  yes
                           linear_solver = ma97                  yes
                              ma86_small = 1e-30                  no
                                  ma86_u = 0.0001                 no
                              ma97_order = best                  yes
                              ma97_small = 1e-30                 yes
                            ma97_switch1 = at_start              yes
                            ma97_switch2 = od_hd_reuse           yes
                                  ma97_u = 1e-06                 yes
                               ma97_umax = 0.5                   yes
                                max_iter = 1000                  yes
                    max_refinement_steps = 20                    yes
                    min_refinement_steps = 5                     yes
                                 mu_init = 1e-06                 yes
           mu_superlinear_decrease_power = 1.25                  yes
                   nlp_scaling_min_value = 1e-08                 yes
                        option_file_name = Preset_Case:_21_NCP.opt  yes
                             output_file = ./tmp/Preset_Case:_21_NCP.output  yes
                      print_user_options = yes                   yes
        required_infeasibility_reduction = 1                      no
                                     tol = 1e-08                 yes
                   warm_start_bound_frac = 1e-20                 yes
                   warm_start_bound_push = 1e-20                 yes
                   warm_start_init_point = yes                   yes
              warm_start_mult_bound_push = 1e-20                 yes
                warm_start_mult_init_max = 1e+40                 yes
             warm_start_slack_bound_frac = 1e-20                 yes
             warm_start_slack_bound_push = 1e-20                 yes

******************************************************************************
This program contains Ipopt, a library for large-scale nonlinear optimization.
 Ipopt is released as open source code under the Eclipse Public License (EPL).
         For more information visit http://projects.coin-or.org/Ipopt
******************************************************************************

This is Ipopt version 3.12.10, running with linear solver ma97.

Number of nonzeros in equality constraint Jacobian...:   117167
Number of nonzeros in inequality constraint Jacobian.:      213
Number of nonzeros in Lagrangian Hessian.............:    47513

Total number of variables............................:    29977
                     variables with only lower bounds:    11312
                variables with lower and upper bounds:    15135
                     variables with only upper bounds:        0
Total number of equality constraints.................:    29864
Total number of inequality constraints...............:       25
        inequality constraints with only lower bounds:        4
   inequality constraints with lower and upper bounds:        0
        inequality constraints with only upper bounds:       21

iter    objective    inf_pr   inf_du lg(mu)  ||d||  lg(rg) alpha_du alpha_pr  ls
   0 -9.9650068e-02 3.70e-01 2.00e+00  -6.0 0.00e+00    -  0.00e+00 0.00e+00   0
In iteration 0, 9 Slacks too small, adjusting variable bounds
   1 -9.9650068e-02 3.70e-01 1.14e+03  -6.0 1.06e+10    -  1.14e-13 3.46e-19h  1
   2 -9.9650000e-02 3.70e-01 1.14e+03  -6.0 1.81e+02    -  1.58e-07 1.93e-05f  1
   3 -9.9650000e-02 3.70e-01 1.14e+03  -6.0 7.82e+01    -  3.76e-02 8.89e-07h  2
   4 -9.9620355e-02 3.67e-01 1.13e+03  -6.0 1.74e+02    -  2.85e-04 6.74e-03h  1
   5 -9.9928866e-02 3.57e-01 1.10e+03  -6.0 1.17e+02    -  1.66e-02 2.68e-02f  1
   6 -1.0010416e-01 3.49e-01 1.07e+03  -6.0 1.01e+02    -  3.12e-02 2.34e-02f  1
   7 -1.0026074e-01 3.45e-01 1.06e+03  -6.0 7.68e+01    -  4.11e-02 1.01e-02h  1
   8 -1.0662362e-01 2.70e-01 4.15e+05  -6.0 1.18e+02    -  3.21e-02 2.19e-01h  1
   9r-1.0662362e-01 2.70e-01 1.00e+03  -0.6 0.00e+00    -  0.00e+00 3.27e-07R  3
iter    objective    inf_pr   inf_du lg(mu)  ||d||  lg(rg) alpha_du alpha_pr  ls
  10r-1.0661148e-01 2.70e-01 2.65e+03  -0.6 1.97e+03    -  2.30e-06 1.26e-06f  1
  11 -1.0662710e-01 2.69e-01 4.15e+06  -6.0 8.09e+01    -  4.36e-02 1.70e-03h  1
  12 -1.0716045e-01 2.59e-01 9.15e+07  -6.0 1.13e+02    -  1.70e-03 3.61e-02h  1
  13r-1.0716045e-01 2.59e-01 1.00e+03  -0.6 0.00e+00    -  0.00e+00 8.08e-08R  2
  14r-1.0716721e-01 2.59e-01 1.71e+03  -0.6 3.51e+03    -  4.08e-06 7.85e-07f  1
  15 -1.0716957e-01 2.59e-01 3.05e+06  -6.0 7.76e+01    -  4.65e-02 2.81e-04h  1
  16 -1.0733539e-01 2.56e-01 1.30e+08  -6.0 1.11e+02    -  2.82e-04 1.19e-02h  1
  17r-1.0733539e-01 2.56e-01 1.00e+03  -0.6 0.00e+00    -  0.00e+00 9.21e-08R  2
  18r-1.0733678e-01 2.56e-01 1.00e+03  -0.6 5.87e+03    -  5.00e-06 1.11e-07f  1
  19 -1.0733694e-01 2.56e-01 1.07e+06  -6.0 7.70e+01    -  4.78e-02 1.94e-05h  1
iter    objective    inf_pr   inf_du lg(mu)  ||d||  lg(rg) alpha_du alpha_pr  ls
  20 -1.0735016e-01 2.56e-01 4.46e+07  -6.0 1.12e+02    -  2.38e-05 9.91e-04h  1
  21 -1.0734883e-01 2.56e-01 4.46e+07  -6.0 4.55e+02    -  3.74e-02 8.81e-05h  1
  22 -1.0724820e-01 2.54e-01 4.43e+07  -6.0 4.64e+02    -  1.13e-03 7.19e-03h  3
  23 -1.0716432e-01 2.53e-01 4.40e+07  -6.0 4.45e+02    -  2.04e-01 6.13e-03h  3
  24 -1.0699760e-01 2.49e-01 4.34e+07  -6.0 4.39e+02    -  1.50e-02 1.47e-02h  4
  25 -1.0691141e-01 2.47e-01 4.31e+07  -6.0 4.04e+02    -  9.36e-02 7.71e-03h  5
  26 -1.0678703e-01 2.44e-01 4.25e+07  -6.0 4.03e+02    -  5.24e-02 1.18e-02h  5
  27 -1.0668523e-01 2.42e-01 4.21e+07  -6.0 3.90e+02    -  1.42e-01 1.01e-02h  5
  28 -1.0655649e-01 2.38e-01 4.15e+07  -6.0 4.10e+02    -  8.62e-02 1.42e-02h  4
  29 -1.0645467e-01 2.35e-01 4.10e+07  -6.0 4.15e+02    -  1.56e-01 1.23e-02h  4
iter    objective    inf_pr   inf_du lg(mu)  ||d||  lg(rg) alpha_du alpha_pr  ls
  30 -1.0636516e-01 2.32e-01 4.05e+07  -6.0 4.58e+02    -  1.50e-01 1.28e-02h  4
  31 -1.0626132e-01 2.28e-01 3.98e+07  -6.0 5.03e+02    -  1.03e-01 1.77e-02h  4
  32 -1.0795959e-01 3.41e+00 3.25e+07  -6.0 5.05e+02    -  2.22e-01 1.83e-01w  1
  33 -1.0795808e-01 3.41e+00 3.25e+07  -6.0 9.47e+01    -  4.48e-01 6.76e-05w  1
  34 -1.0516448e-01 5.84e+00 2.49e+07  -6.0 2.60e+02    -  3.94e-01 2.35e-01w  1
  35 -1.0647360e-01 2.23e-01 3.89e+07  -6.0 3.27e+02    -  2.22e-01 2.28e-02h  3
  36 -1.0645865e-01 2.21e-01 3.85e+07  -6.0 5.38e+02    -  1.18e-01 1.04e-02h  5
  37 -1.0665095e-01 2.21e-01 3.76e+07  -6.0 5.44e+02    -  3.08e-01 2.10e-02h  4
  38 -1.0921357e-01 3.30e+00 3.12e+07  -6.0 5.62e+02    -  3.66e-02 1.71e-01h  1
  39 -1.0920500e-01 3.30e+00 3.12e+07  -6.0 1.84e+02    -  2.60e-01 2.10e-04h  1
iter    objective    inf_pr   inf_du lg(mu)  ||d||  lg(rg) alpha_du alpha_pr  ls
  40 -1.0917210e-01 3.29e+00 3.12e+07  -6.0 3.54e+02    -  3.08e-01 7.18e-04h  8
  41 -1.0916475e-01 3.29e+00 3.12e+07  -6.0 1.01e+03    -  4.34e-02 1.42e-04h 10
  42 -1.0916194e-01 3.29e+00 3.12e+07  -6.0 1.06e+03    -  1.98e-01 8.79e-05h 11
  43 -1.1154509e-01 4.79e+01 2.95e+07  -6.0 3.52e+03    -  1.32e-02 5.46e-02h  1
  44r-1.1154509e-01 4.79e+01 1.00e+03   1.4 0.00e+00  -4.0 0.00e+00 1.91e-08R  2
  45r-1.1181634e-01 4.78e+01 1.00e+03   1.4 2.08e+06    -  9.94e-09 4.23e-08f  1
  46 -1.1181478e-01 4.78e+01 3.76e+02  -6.0 2.62e+01    -  1.08e-06 4.07e-04h  1
  47 -1.1181387e-01 4.78e+01 9.87e+04  -6.0 6.99e+01    -  7.70e-03 3.50e-04h  1
  48 -1.1176038e-01 4.74e+01 1.83e+04  -6.0 1.40e+02    -  7.64e-04 8.44e-03h  1
  49 -1.1175529e-01 4.74e+01 2.57e+05  -6.0 1.22e+02    -  2.15e-02 8.90e-04h  1
iter    objective    inf_pr   inf_du lg(mu)  ||d||  lg(rg) alpha_du alpha_pr  ls
  50 -1.1153919e-01 4.54e+01 3.33e+04  -6.0 1.41e+02    -  1.75e-02 4.03e-02h  1
  51 -1.1123103e-01 4.22e+01 7.84e+05  -6.0 1.35e+02    -  1.41e-02 7.06e-02h  1
  52 -1.1116218e-01 4.18e+01 1.35e+05  -6.0 4.14e+01    -  6.30e-02 1.07e-02h  1
  53 -1.0999798e-01 3.39e+01 2.13e+06  -6.0 4.10e+01    -  8.46e-03 1.86e-01h  1
  54 -1.0929184e-01 3.14e+01 2.31e+06  -6.0 5.22e+01    -  5.30e-02 7.60e-02h  2
  55 -1.0902528e-01 3.05e+01 1.43e+06  -6.0 5.57e+01    -  8.19e-02 2.61e-02h  3
  56 -1.0893058e-01 3.02e+01 1.45e+06  -6.0 4.91e+01    -  2.21e-01 1.15e-02h  4
  57 -1.0891947e-01 3.00e+01 3.26e+06  -6.0 3.41e+01    -  1.77e-01 4.98e-03h  6
  58 -1.0892245e-01 2.99e+01 5.80e+06  -6.0 3.39e+01    -  3.06e-01 4.01e-03h  7
  59 -1.0988990e-01 1.93e+01 3.08e+06  -6.0 3.89e+01    -  2.17e-01 3.47e-01h  1
iter    objective    inf_pr   inf_du lg(mu)  ||d||  lg(rg) alpha_du alpha_pr  ls
  60 -1.1037246e-01 1.76e+01 2.90e+06  -6.0 2.57e+01    -  2.80e-06 8.92e-02h  1
  61 -1.1079569e-01 1.34e+01 9.54e+05  -6.0 3.29e+01    -  9.97e-05 2.37e-01h  1
  62 -1.1081725e-01 1.33e+01 5.48e+06  -6.0 5.53e+01    -  2.11e-01 5.25e-03h  1
  63 -1.1334991e-01 8.94e+00 1.63e+06  -6.0 6.30e+01    -  3.13e-02 3.59e-01h  1
  64 -1.1481999e-01 7.51e+00 3.42e+06  -6.0 4.49e+01    -  1.02e-01 1.76e-01h  1
  65 -1.2063217e-01 5.51e+00 1.14e+07  -6.0 6.57e+01    -  2.65e-01 4.78e-01h  1
  66 -1.2029080e-01 4.85e+00 1.78e+07  -6.0 4.80e+01    -  3.48e-03 1.28e-01h  1
  67 -1.1966518e-01 4.09e+00 1.76e+07  -6.0 4.75e+01    -  1.26e-01 1.58e-01h  1
  68 -1.1880675e-01 3.48e+00 2.44e+07  -6.0 1.02e+02    -  5.88e-02 1.44e-01h  1
  69 -1.1777927e-01 2.19e+00 3.97e+07  -6.0 1.20e+01    -  2.52e-01 4.08e-01h  1
iter    objective    inf_pr   inf_du lg(mu)  ||d||  lg(rg) alpha_du alpha_pr  ls
  70r-1.1777927e-01 2.19e+00 1.00e+03   0.1 0.00e+00    -  0.00e+00 1.64e-07R  2
  71r-1.1740572e-01 2.18e+00 1.06e+03   0.1 8.22e+03    -  6.12e-06 2.81e-06f  1
  72 -1.1721139e-01 1.49e+00 3.92e+05  -6.0 2.49e+00    -  5.56e-01 3.15e-01h  1
  73 -1.1697759e-01 4.50e-01 1.22e+06  -6.0 1.83e+00    -  3.15e-01 6.99e-01h  1
  74 -1.1698267e-01 1.72e-01 4.66e+05  -6.0 9.81e-01    -  8.37e-01 6.18e-01h  1
  75 -1.1759343e-01 2.74e-03 1.24e+01  -6.0 2.40e+00    -  8.70e-01 1.00e+00h  1
  76 -1.2223591e-01 1.03e-01 3.71e+01  -6.0 1.52e+01    -  4.24e-01 1.00e+00h  1
  77 -1.2842487e-01 2.53e-01 3.57e+01  -6.0 2.83e+01    -  8.49e-02 6.61e-01h  1
  78 -1.3594607e-01 3.65e-01 1.48e+02  -6.0 3.11e+01    -  6.09e-01 9.81e-01f  1
  79 -1.4392916e-01 5.84e-01 3.21e+02  -6.0 6.63e+01    -  9.26e-04 5.44e-01h  1
iter    objective    inf_pr   inf_du lg(mu)  ||d||  lg(rg) alpha_du alpha_pr  ls
  80 -1.4474646e-01 5.63e-01 2.74e+04  -6.0 1.39e+02    -  2.43e-01 1.37e-01f  1
  81 -1.5419767e-01 4.03e-01 5.23e+03  -6.0 6.91e+01    -  2.19e-01 6.85e-01h  1
  82 -1.5819875e-01 3.77e-01 2.15e+04  -6.0 6.85e+01    -  4.93e-01 3.04e-01h  1
  83 -1.6045055e-01 3.81e-01 4.75e+04  -6.0 1.42e+02    -  2.15e-01 1.25e-01h  1
  84 -1.6384511e-01 6.22e-01 2.44e+07  -6.0 1.02e+03    -  3.86e-04 4.66e-02h  1
  85 -1.6606569e-01 6.69e-01 1.91e+07  -6.0 1.74e+02    -  2.76e-02 2.16e-01h  1
  86 -1.6799124e-01 8.17e-01 1.45e+07  -6.0 2.18e+02    -  6.21e-01 2.40e-01h  1
  87 -1.7310294e-01 3.54e+00 1.05e+07  -6.0 7.55e+02    -  3.51e-01 2.74e-01h  1
  88 -1.7370242e-01 3.49e+00 1.03e+07  -6.0 1.22e+03    -  5.32e-01 2.63e-02h  1
  89 -1.7896322e-01 2.67e+00 7.50e+06  -6.0 9.38e+02    -  5.89e-01 2.69e-01h  1
iter    objective    inf_pr   inf_du lg(mu)  ||d||  lg(rg) alpha_du alpha_pr  ls
  90 -1.8366740e-01 2.96e+00 6.54e+06  -6.0 2.73e+03    -  1.43e-01 1.29e-01h  1
  91 -1.8967074e-01 5.03e+00 5.67e+06  -6.0 2.69e+03    -  3.06e-01 1.33e-01h  1
  92 -1.8951936e-01 4.86e+00 5.48e+06  -6.0 2.75e+01  -4.5 7.11e-05 3.31e-02h  1
  93 -1.8940043e-01 4.53e+00 5.11e+06  -6.0 6.86e+00  -4.1 3.27e-02 6.86e-02h  1
  94 -1.8938391e-01 4.46e+00 5.03e+06  -6.0 2.73e+00  -3.6 1.04e-01 1.52e-02h  1
  95 -1.8880760e-01 3.40e+00 3.83e+06  -6.0 8.83e+00  -4.1 4.06e-02 2.38e-01h  1
  96 -1.8877502e-01 3.31e+00 3.73e+06  -6.0 2.78e+00  -3.7 2.78e-01 2.66e-02h  1
  97 -1.8870405e-01 3.18e+00 3.59e+06  -6.0 7.52e+00  -4.2 1.25e-01 3.75e-02h  1
  98 -1.8449151e-01 9.07e-02 5.42e+03  -6.0 1.80e+00  -3.7 4.09e-01 1.00e+00h  1
  99 -1.8566911e-01 3.78e-02 2.39e+03  -6.0 2.50e+00  -4.2 1.03e-01 5.57e-01h  1
iter    objective    inf_pr   inf_du lg(mu)  ||d||  lg(rg) alpha_du alpha_pr  ls
 100 -1.8641261e-01 2.71e-02 1.70e+03  -6.0 4.29e+00  -4.7 1.08e-01 2.88e-01f  1
 101 -1.8642805e-01 2.63e-02 1.66e+03  -6.0 2.14e+00  -3.4 1.69e-01 2.81e-02f  1
 102 -1.8645378e-01 2.59e-02 1.63e+03  -6.0 8.74e-01  -3.8 4.65e-01 1.72e-02f  1
 103 -1.8668020e-01 1.69e-02 1.04e+03  -6.0 5.46e-01  -3.4 9.58e-01 3.61e-01f  1
 104 -1.8852235e-01 1.71e-02 6.46e+00  -6.0 9.83e-01  -3.9 3.27e-01 1.00e+00h  1
 105 -1.8866012e-01 1.46e-02 5.56e+00  -6.0 9.15e-01  -4.4 1.61e-01 1.47e-01h  1
 106 -1.8873655e-01 1.37e-02 5.19e+00  -6.0 3.24e+00  -4.8 6.09e-01 6.84e-02h  1
 107 -1.8889331e-01 1.22e-02 4.66e+00  -6.0 5.39e+00  -5.3 3.00e-01 1.12e-01f  1
 108 -1.8928751e-01 1.92e-02 1.64e+01  -6.0 1.24e+01  -5.8 9.42e-01 1.48e-01f  1
 109 -1.8944371e-01 2.00e-02 2.53e+01  -6.0 9.52e+01  -6.3 7.80e-01 3.90e-02h  1
iter    objective    inf_pr   inf_du lg(mu)  ||d||  lg(rg) alpha_du alpha_pr  ls
 110 -1.9049235e-01 5.33e-02 2.53e+01  -6.0 3.85e+01  -6.7 6.97e-01 2.77e-01h  1
 111 -1.9245347e-01 6.67e-01 4.63e+00  -6.0 8.62e+01  -7.2 6.88e-01 9.98e-01h  1
 112 -1.9431429e-01 5.85e-01 1.83e+01  -6.0 2.41e+02  -7.7 8.17e-01 3.36e-01h  1
 113 -1.9656408e-01 5.27e-01 4.32e+01  -6.0 1.44e+03  -8.2 9.12e-01 1.09e-01h  1
 114 -1.9559659e-01 5.63e-01 6.22e+01  -6.0 4.31e+02  -5.9 1.70e-04 2.24e-01H  1
 115 -1.9640475e-01 1.19e+00 4.80e+01  -6.0 3.81e+01  -6.4 1.84e-01 2.65e-01h  1
 116 -1.9674273e-01 1.10e+00 2.24e+04  -6.0 2.41e+01  -6.0 2.80e-01 1.73e-01h  1
 117 -1.9694753e-01 9.42e-01 5.16e+04  -6.0 1.41e+01  -5.6 3.09e-01 1.81e-01f  1
 118 -1.9721429e-01 1.00e+00 2.67e+04  -6.0 8.32e+01  -6.0 1.09e-01 4.96e-02h  1
 119 -1.9729119e-01 9.86e-01 2.78e+04  -6.0 5.61e+01  -6.5 1.82e-02 1.88e-02h  1
iter    objective    inf_pr   inf_du lg(mu)  ||d||  lg(rg) alpha_du alpha_pr  ls
 120 -1.9731584e-01 9.60e-01 6.53e+04  -6.0 4.65e+01  -7.0 1.33e-01 2.66e-02f  1
 121 -1.9778049e-01 8.21e-01 5.55e+04  -6.0 1.68e+02  -7.5 8.32e-01 1.47e-01h  1
 122 -2.0048069e-01 7.79e-01 4.22e+04  -6.0 7.71e+02  -8.0 2.45e-01 2.40e-01h  1
 123 -2.0074608e-01 7.67e-01 4.15e+04  -6.0 1.39e+03  -8.4 8.82e-02 1.66e-02h  1
 124 -2.0074738e-01 7.65e-01 4.14e+04  -6.0 1.27e+01  -6.2 1.59e-01 1.78e-03h  1
 125 -2.0076201e-01 7.47e-01 4.04e+04  -6.0 2.66e+01  -6.7 1.00e+00 2.41e-02h  1
 126 -2.0105038e-01 5.45e-01 2.96e+04  -6.0 5.67e+01  -7.2 8.00e-01 2.70e-01h  1
 127 -2.0349881e-01 3.32e-01 1.10e+02  -6.0 1.42e+02  -7.6 1.00e+00 1.00e+00h  1
 128 -2.0592367e-01 1.01e+00 7.93e+02  -6.0 5.14e+02  -8.1 3.79e-01 2.80e-01h  1
 129 -2.0754803e-01 9.50e-01 1.18e+03  -6.0 1.31e+03  -8.6 1.05e-01 7.81e-02h  1
iter    objective    inf_pr   inf_du lg(mu)  ||d||  lg(rg) alpha_du alpha_pr  ls
 130 -2.0755794e-01 2.11e+00 7.05e+02  -6.0 1.87e+02  -7.3 1.00e+00 9.49e-01h  1
 131 -2.0808690e-01 1.57e+00 2.65e+03  -6.0 1.62e+02  -7.7 2.16e-01 2.40e-01h  1
 132 -2.0836924e-01 1.55e+00 1.07e+06  -6.0 3.33e+03  -8.2 6.46e-04 1.07e-02h  1
 133 -2.1160651e-01 6.92e-01 2.03e+04  -6.0 2.06e+02  -7.8 1.25e-01 1.00e+00h  1
 134 -2.1181841e-01 5.25e-01 1.47e+04  -6.0 1.00e+02  -6.5 1.11e-02 2.59e-01h  1
 135 -2.1189898e-01 4.85e-01 6.79e+03  -6.0 9.72e+01  -6.9 7.36e-01 5.53e-01h  1
 136 -2.1313328e-01 2.74e-01 1.90e+02  -6.0 7.58e+01  -7.4 1.28e-01 1.00e+00h  1
 137 -2.1392383e-01 3.62e+00 1.87e+02  -6.0 3.90e+03  -7.9 1.43e-02 1.40e-02h  1
 138 -2.1927018e-01 1.84e+01 1.21e+02  -6.0 7.41e+02  -8.4 3.56e-01 4.44e-01h  1
 139 -2.1978795e-01 1.79e+01 8.08e+02  -6.0 1.13e+03  -8.8 3.40e-01 3.56e-02h  1
iter    objective    inf_pr   inf_du lg(mu)  ||d||  lg(rg) alpha_du alpha_pr  ls
 140 -2.1991727e-01 1.75e+01 8.59e+02  -6.0 5.22e+02  -8.4 5.21e-01 2.26e-02h  1
 141 -2.2332026e-01 1.14e+01 4.96e+02  -6.0 1.10e+03  -8.9 3.15e-01 3.51e-01h  1
 142 -2.2395959e-01 7.70e+00 2.57e+03  -6.0 3.36e+02  -7.6 1.39e-02 3.28e-01h  1
 143 -2.2655850e-01 2.30e+00 2.87e+03  -6.0 3.55e+02  -8.0 8.79e-02 1.00e+00h  1
 144 -2.2782788e-01 2.91e+00 1.83e+03  -6.0 1.01e+03  -8.5 1.71e-01 2.56e-01h  1
 145 -2.2981448e-01 2.93e+00 1.73e+03  -6.0 8.80e+02  -9.0 3.93e-01 3.72e-01h  1
 146 -2.2981181e-01 2.90e+00 4.34e+03  -6.0 8.08e-01  -1.1 7.98e-03 1.10e-02h  1
 147 -2.2980381e-01 2.84e+00 5.21e+03  -6.0 6.31e-01  -1.6 1.51e-02 1.89e-02h  1
 148 -2.2979343e-01 2.78e+00 6.42e+03  -6.0 1.44e+00  -1.2 1.28e-03 2.22e-02h  1
 149 -2.2979104e-01 2.77e+00 6.07e+03  -6.0 8.72e-01  -0.8 1.28e-02 5.22e-03h  1
iter    objective    inf_pr   inf_du lg(mu)  ||d||  lg(rg) alpha_du alpha_pr  ls
 150 -2.2978906e-01 2.75e+00 4.64e+03  -6.0 5.86e-01  -0.3 4.91e-02 4.37e-03h  1
 151 -2.2977653e-01 2.68e+00 4.63e+03  -6.0 9.06e-01  -0.8 1.48e-02 2.75e-02h  1
 152 -2.2977020e-01 2.64e+00 4.01e+03  -6.0 5.86e-01  -0.4 1.13e-01 1.46e-02h  1
 153 -2.2974248e-01 2.47e+00 3.74e+03  -6.0 5.92e-01  -0.9 5.30e-02 6.57e-02h  1
 154 -2.2967013e-01 2.00e+00 3.07e+03  -6.0 7.09e-01  -1.4 3.16e-01 1.88e-01h  1
 155 -2.2935248e-01 1.05e-03 6.22e+01  -6.0 4.33e-01  -1.8 3.74e-01 1.00e+00h  1
 156 -2.2935367e-01 2.30e-06 7.29e+00  -6.0 2.77e-02  -2.3 8.85e-01 1.00e+00h  1
 157 -2.2936236e-01 6.38e-06 6.51e+01  -6.0 3.68e-02  -2.8 3.89e-01 1.00e+00h  1
 158 -2.2939424e-01 8.02e-05 6.36e+00  -6.0 1.03e-01  -3.3 5.16e-01 1.00e+00h  1
 159 -2.2943718e-01 1.92e-04 4.25e+00  -6.0 2.89e-01  -3.7 2.62e-01 4.06e-01h  1
iter    objective    inf_pr   inf_du lg(mu)  ||d||  lg(rg) alpha_du alpha_pr  ls
 160 -2.2946710e-01 1.57e-04 3.81e+00  -6.0 6.26e-01  -4.2 5.82e-01 1.65e-01f  1
 161 -2.2959861e-01 6.45e-04 2.96e+00  -6.0 1.18e+00  -4.7 4.35e-01 2.78e-01f  1
 162 -2.2965378e-01 7.15e-04 1.81e+01  -6.0 1.49e+00  -5.2 1.00e+00 1.27e-01f  1
 163 -2.2972352e-01 7.34e-04 2.24e+01  -6.0 2.80e+00  -5.6 1.00e+00 2.59e-01f  1
 164 -2.2978382e-01 4.42e-04 6.39e+00  -6.0 2.49e+00  -6.1 1.00e+00 6.19e-01f  1
 165 -2.2997110e-01 3.74e-03 1.02e+01  -6.0 7.57e+00  -6.6 1.00e+00 1.00e+00f  1
 166 -2.3005852e-01 3.71e-03 6.90e+01  -6.0 2.43e+01  -6.2 1.00e+00 9.25e-02h  1
 167 -2.3021972e-01 4.21e-03 6.83e+01  -6.0 2.75e+01  -5.7 1.31e-01 9.37e-02h  1
 168 -2.3022135e-01 1.47e-03 2.06e+02  -6.0 1.13e+00  -4.4 2.16e-02 1.00e+00f  1
 169 -2.3022796e-01 5.99e-06 1.16e+01  -6.0 3.68e-02  -3.1 8.72e-01 1.00e+00h  1
iter    objective    inf_pr   inf_du lg(mu)  ||d||  lg(rg) alpha_du alpha_pr  ls
 170 -2.3024971e-01 1.77e-05 5.38e+00  -6.0 8.96e-02  -3.6 5.62e-01 1.00e+00h  1
 171 -2.3029150e-01 1.39e-04 1.11e+00  -6.0 2.03e-01  -4.0 1.00e+00 1.00e+00h  1
 172 -2.3040916e-01 1.95e-03 1.91e+01  -6.0 7.38e-01  -4.5 1.00e+00 1.00e+00h  1
 173 -2.3060951e-01 3.50e-02 1.38e+02  -6.0 1.35e+00  -5.0 3.98e-01 1.00e+00h  1
 174 -2.3053946e-01 2.68e-02 6.92e+01  -6.0 1.13e+01  -5.5 6.95e-04 2.44e-01H  1
 175 -2.3052741e-01 6.74e-03 1.30e+01  -6.0 1.23e+00  -4.1 3.42e-01 1.00e+00f  1
 176 -2.3052976e-01 5.10e-03 1.19e+01  -6.0 6.03e-01  -4.6 1.00e+00 2.47e-01h  1
 177 -2.3057704e-01 7.58e-04 9.61e-01  -6.0 6.67e-01  -5.1 1.00e+00 9.34e-01f  1
 178 -2.3064380e-01 8.41e-03 1.62e+01  -6.0 7.86e-01  -5.6 1.00e+00 1.00e+00f  1
 179 -2.3069650e-01 1.56e-03 1.19e+00  -6.0 2.12e+00  -6.1 1.00e+00 1.00e+00h  1
iter    objective    inf_pr   inf_du lg(mu)  ||d||  lg(rg) alpha_du alpha_pr  ls
 180 -2.3080331e-01 6.08e-04 7.25e-01  -6.0 5.92e+00  -6.5 1.00e+00 1.00e+00h  1
 181 -2.3105850e-01 4.93e-03 7.73e-01  -6.0 1.68e+01  -7.0 1.00e+00 1.00e+00h  1
 182 -2.3166290e-01 3.61e-02 4.36e+00  -6.0 4.55e+01  -7.5 1.00e+00 1.00e+00h  1
 183 -2.3281530e-01 1.92e-01 1.41e+01  -6.0 1.05e+02  -8.0 1.00e+00 1.00e+00h  1
 184 -2.3347357e-01 1.96e-01 2.50e+01  -6.0 1.72e+02  -8.4 8.74e-01 3.86e-01h  1
 185 -2.3412774e-01 8.86e-01 4.85e+01  -6.0 3.45e+02  -8.9 7.20e-01 2.95e-01h  1
 186 -2.3526568e-01 3.44e+00 2.73e+01  -6.0 1.11e+03  -9.4 1.15e-01 3.82e-01h  1
 187 -2.3537190e-01 3.18e+00 3.43e+01  -6.0 4.33e+02  -9.0 2.54e-01 8.15e-02h  1
 188 -2.3864109e-01 2.23e+01 4.90e+01  -6.0 1.44e+03  -9.4 1.00e-01 9.37e-01h  1
 189 -2.3883443e-01 2.03e+01 6.51e+01  -6.0 6.45e+02  -9.0 5.80e-02 9.08e-02h  1
iter    objective    inf_pr   inf_du lg(mu)  ||d||  lg(rg) alpha_du alpha_pr  ls
 190 -2.3900668e-01 2.02e+01 6.75e+01  -6.0 7.01e+04  -9.5 6.18e-03 2.49e-03h  1
 191 -2.3998825e-01 1.26e+01 5.71e+01  -6.0 1.18e+03  -9.1 5.18e-01 4.30e-01h  1
 192 -2.4137133e-01 1.66e+01 5.11e+01  -6.0 6.80e+03  -9.6 3.55e-02 1.45e-01h  1
 193 -2.4152145e-01 1.59e+01 4.85e+01  -6.0 1.01e+03  -9.1 6.06e-02 4.31e-02h  1
 194 -2.4172416e-01 1.42e+01 4.37e+01  -6.0 8.31e+02  -8.7 8.33e-02 1.08e-01h  1
 195 -2.4232493e-01 1.30e+01 4.55e+01  -6.0 7.24e+03  -9.2 7.51e-02 9.11e-02h  1
 196 -2.4351329e-01 7.22e+00 1.64e+02  -6.0 4.29e+02  -8.7 2.07e-01 4.73e-01h  1
 197 -2.4430556e-01 4.13e+00 2.88e+02  -6.0 4.26e+02  -8.3 1.20e-01 4.76e-01h  1
 198 -2.4502555e-01 4.31e+00 3.91e+01  -6.0 5.87e+02  -8.8 3.06e-01 1.61e-01h  1
 199 -2.4829529e-01 1.03e+01 3.64e+02  -6.0 1.71e+03  -9.3 1.23e-01 3.61e-01h  1
iter    objective    inf_pr   inf_du lg(mu)  ||d||  lg(rg) alpha_du alpha_pr  ls
 200 -2.4907286e-01 1.01e+01 4.25e+02  -6.0 5.41e+02  -8.9 9.00e-02 1.31e-01h  1
 201 -2.5045007e-01 1.01e+01 5.06e+02  -6.0 2.21e+03  -9.3 1.08e-01 1.45e-01h  1
 202 -2.5104250e-01 8.86e+00 5.69e+02  -6.0 7.33e+02  -8.9 1.13e-01 1.50e-01h  1
 203 -2.5312649e-01 1.40e+01 7.36e+02  -6.0 2.87e+03  -9.4 1.34e-01 1.89e-01h  1
 204 -2.5331369e-01 1.40e+01 4.19e+02  -6.0 7.82e+03  -9.9 7.00e-02 7.49e-03h  1
 205 -2.5431969e-01 9.88e+00 5.19e+02  -6.0 1.15e+03  -9.4 2.32e-01 2.92e-01h  1
 206 -2.5459567e-01 8.61e+00 1.12e+03  -6.0 1.86e+03  -9.0 1.24e-01 2.95e-01h  1
 207 -2.5496673e-01 7.28e+00 2.00e+01  -6.0 9.65e+02  -9.5 3.03e-01 1.72e-01h  1
 208 -2.5558512e-01 6.28e+00 5.27e+02  -6.0 5.12e+03 -10.0 6.99e-02 1.38e-01h  1
 209 -2.5722453e-01 1.62e+01 2.21e+03  -6.0 2.24e+03  -9.5 3.24e-01 5.55e-01h  1
iter    objective    inf_pr   inf_du lg(mu)  ||d||  lg(rg) alpha_du alpha_pr  ls
 210 -2.5731811e-01 1.58e+01 1.92e+03  -6.0 7.67e+03 -10.0 4.70e-02 2.84e-02h  1
 211 -2.5753493e-01 1.94e+01 1.44e+03  -6.0 3.48e+04    -  6.44e-02 3.38e-02h  1
 212 -2.5802489e-01 1.76e+01 2.04e+03  -6.0 3.79e+03 -10.5 5.21e-02 1.10e-01h  1
 213 -2.5812450e-01 1.74e+01 9.48e+02  -6.0 5.29e+03 -11.0 1.14e-01 3.71e-02h  1
 214 -2.5823358e-01 2.13e+01 6.38e+02  -6.0 1.39e+04 -11.4 6.54e-02 4.25e-02h  1
 215 -2.5823727e-01 2.89e+01 3.75e+02  -6.0 8.42e+04 -11.9 3.23e-02 9.27e-03h  1
 216 -2.5824101e-01 4.86e+01 4.56e+02  -6.0 3.89e+04 -11.5 2.37e-02 3.30e-02h  1
 217 -2.5827234e-01 4.71e+01 1.65e+03  -6.0 6.85e+03    -  1.26e-02 3.03e-02h  1
 218 -2.5829927e-01 4.33e+01 1.24e+03  -6.0 2.62e+03 -10.2 2.85e-02 9.64e-02h  1
 219 -2.5835095e-01 4.16e+01 3.99e+03  -6.0 4.17e+03 -10.6 1.74e-01 5.32e-02h  1
iter    objective    inf_pr   inf_du lg(mu)  ||d||  lg(rg) alpha_du alpha_pr  ls
 220 -2.5835092e-01 4.16e+01 7.73e+03  -6.0 4.97e+04    -  6.09e-02 2.01e-03h  1
 221 -2.5846026e-01 3.45e+01 7.22e+03  -6.0 7.39e+02  -9.3 1.17e-02 1.71e-01f  1
 222 -2.5873612e-01 1.69e+01 1.23e+05  -6.0 2.35e+02  -8.9 2.07e-02 5.09e-01h  1
 223 -2.5874590e-01 1.65e+01 1.19e+05  -6.0 8.22e+02  -9.4 1.08e-01 2.69e-02h  1
 224 -2.5900047e-01 4.45e+00 3.21e+04  -6.0 2.24e+02  -8.9 3.18e-01 7.30e-01h  1
 225 -2.5910329e-01 3.44e-01 8.10e+01  -6.0 9.03e+01  -8.5 4.52e-01 1.00e+00h  1
 226 -2.5914498e-01 6.52e-01 3.89e+01  -6.0 3.12e+02  -9.0 7.07e-01 2.47e-01h  1
 227 -2.5919656e-01 4.43e-01 2.31e+01  -6.0 2.70e+02  -9.5 5.69e-01 3.21e-01h  1
 228 -2.5923098e-01 4.44e-01 1.07e+01  -6.0 2.91e+02  -9.0 8.45e-01 4.30e-01h  1
 229 -2.5930488e-01 2.47e+00 2.32e+00  -6.0 4.56e+02  -9.5 6.65e-01 7.84e-01h  1
iter    objective    inf_pr   inf_du lg(mu)  ||d||  lg(rg) alpha_du alpha_pr  ls
 230 -2.5934468e-01 2.96e+00 7.57e+00  -6.0 7.11e+02 -10.0 5.07e-02 4.00e-01h  1
 231 -2.5938597e-01 1.25e+01 1.39e+01  -6.0 5.38e+03  -9.6 8.04e-02 1.38e-01h  1
 232 -2.5939069e-01 1.05e+01 1.09e+01  -6.0 6.80e+02 -10.0 1.97e-01 1.84e-01h  1
 233 -2.5950050e-01 5.10e+00 3.78e+01  -6.0 1.61e+03 -10.5 1.09e-03 5.45e-01h  1
 234 -2.5945367e-01 5.41e+00 1.43e+01  -6.0 1.08e+03  -9.2 1.00e+00 5.00e-01h  2
 235 -2.5947057e-01 1.01e+01 5.55e+01  -6.0 4.65e+04    -  5.38e-02 1.64e-02h  2
 236 -2.5949945e-01 5.56e+00 6.40e+00  -6.0 3.43e+02  -9.7 1.00e+00 4.58e-01h  1
 237 -2.5953731e-01 5.61e+00 6.24e+00  -6.0 5.43e+04    -  3.33e-03 5.43e-03h  2
 238 -2.5959842e-01 4.61e+00 4.98e+01  -6.0 1.69e+03 -10.1 4.15e-01 1.95e-01h  1
 239 -2.5962755e-01 4.12e+00 5.96e+01  -6.0 7.54e+02  -8.8 7.56e-02 1.05e-01h  1
iter    objective    inf_pr   inf_du lg(mu)  ||d||  lg(rg) alpha_du alpha_pr  ls
 240 -2.5966307e-01 1.14e+01 7.74e+01  -6.0 8.97e+02  -9.3 6.15e-01 1.00e+00h  1
 241 -2.5971068e-01 1.15e+01 6.05e+01  -6.0 2.16e+03  -7.1 6.12e-03 1.84e-01h  1
 242 -2.5975391e-01 5.23e-03 3.91e+01  -6.0 5.10e+00  -7.5 5.60e-01 1.00e+00h  1
 243 -2.5976903e-01 8.35e-03 1.64e-01  -6.0 1.33e+01  -8.0 1.00e+00 1.00e+00h  1
 244 -2.5977756e-01 6.06e-02 4.98e-03  -6.0 3.05e+01  -8.5 1.00e+00 1.00e+00h  1
 245 -2.5979447e-01 2.08e-01 2.78e-02  -6.0 8.32e+01  -9.0 1.00e+00 1.00e+00h  1
 246 -2.5982372e-01 7.32e-01 3.60e-01  -6.0 2.09e+02  -9.4 1.00e+00 1.00e+00h  1
 247 -2.5987449e-01 1.37e+01 4.84e+01  -6.0 8.78e+02  -9.9 3.76e-01 1.00e+00h  1
 248 -2.5986522e-01 1.28e+01 3.50e+01  -6.0 1.33e+03 -10.4 1.50e-01 7.50e-02h  1
 249 -2.5982780e-01 3.86e+01 3.48e+00  -6.0 1.92e+03 -10.9 1.00e+00 9.05e-01h  1
iter    objective    inf_pr   inf_du lg(mu)  ||d||  lg(rg) alpha_du alpha_pr  ls
 250 -2.5990176e-01 3.57e+01 3.18e+01  -6.0 1.49e+04 -11.4 3.24e-02 7.54e-02h  1
 251 -2.5992072e-01 3.34e+01 1.20e+03  -6.0 1.43e+03 -10.0 5.25e-01 6.38e-02h  1
 252 -2.5990011e-01 3.04e+01 1.06e+03  -6.0 2.90e+03    -  1.97e-01 1.08e-01h  1
 253 -2.5990241e-01 2.87e+01 6.22e+02  -6.0 3.29e+03    -  2.20e-01 3.94e-01H  1
 254 -2.5989434e-01 1.29e+01 4.01e+03  -6.0 3.44e+01  -7.8 1.32e-02 5.49e-01h  1
 255 -2.5982439e-01 6.02e-03 2.90e+03  -6.0 8.12e+00  -7.4 2.02e-01 1.00e+00h  1
 256 -2.5986501e-01 2.27e-03 5.48e-01  -6.0 2.55e+00  -7.8 1.00e+00 1.00e+00h  1
 257 -2.5984625e-01 3.15e-04 1.49e-01  -6.0 3.52e+00  -8.3 1.00e+00 1.00e+00h  1
 258 -2.5983930e-01 1.27e-03 1.11e-03  -6.0 1.04e+01  -8.8 1.00e+00 1.00e+00h  1
 259 -2.5983507e-01 1.16e-02 7.03e-04  -6.0 3.14e+01  -9.3 1.00e+00 1.00e+00h  1
iter    objective    inf_pr   inf_du lg(mu)  ||d||  lg(rg) alpha_du alpha_pr  ls
 260 -2.5983088e-01 1.05e-01 5.10e-03  -6.0 9.45e+01  -9.8 1.00e+00 1.00e+00h  1
 261 -2.5982915e-01 7.04e-01 5.09e+01  -6.0 9.81e+03    -  3.01e-01 2.31e-02h  2
 262 -2.5978837e-01 5.99e-01 1.78e-01  -6.0 7.97e+02    -  1.00e+00 1.00e+00h  1
 263 -2.5978564e-01 2.73e-02 5.55e-03  -6.0 4.81e+01    -  1.00e+00 1.00e+00h  1
 264 -2.5978562e-01 6.00e-05 1.16e-06  -6.0 2.25e+00    -  1.00e+00 1.00e+00h  1
 265 -2.5978562e-01 2.87e-10 1.44e-11  -6.0 4.25e-04    -  1.00e+00 1.00e+00h  1
 266 -2.6041237e-01 2.86e+00 4.02e+01  -7.5 2.87e+03    -  4.38e-01 2.97e-01f  1
 267 -2.6061373e-01 3.14e+00 2.10e+01  -7.5 2.89e+03    -  1.13e-01 1.86e-01h  1
 268 -2.6072616e-01 2.99e+00 6.21e+01  -7.5 2.45e+03    -  4.45e-01 1.35e-01h  1
 269 -2.6089637e-01 3.33e+00 4.06e+01  -7.5 2.44e+03    -  1.48e-01 2.36e-01h  1
iter    objective    inf_pr   inf_du lg(mu)  ||d||  lg(rg) alpha_du alpha_pr  ls
 270 -2.6090923e-01 3.24e+00 9.84e+01  -7.5 6.46e+02 -10.2 7.56e-01 2.79e-02h  1
 271 -2.6122073e-01 4.93e+00 2.99e+01  -7.5 2.33e+03    -  8.20e-02 5.83e-01h  1
 272 -2.6129567e-01 3.49e+00 3.43e+01  -7.5 5.15e+02 -10.7 8.78e-01 2.98e-01h  1
 273 -2.6133080e-01 1.77e+00 1.73e+01  -7.5 6.38e+02 -11.2 1.00e+00 5.14e-01h  1
 274 -2.6134669e-01 2.56e+00 3.98e+00  -7.5 5.34e+02 -11.7 7.14e-01 7.74e-01h  1
 275 -2.6134240e-01 9.56e-01 2.24e+00  -7.5 2.30e+02 -11.2 1.47e-01 1.00e+00h  1
 276 -2.6134748e-01 2.41e+00 9.38e-01  -7.5 3.81e+02 -11.7 4.73e-01 6.37e-01h  1
 277 -2.6134759e-01 3.55e-01 5.41e-02  -7.5 1.41e+02 -11.3 1.00e+00 1.00e+00h  1
 278 -2.6134754e-01 3.11e-01 9.14e-02  -7.5 2.62e+02 -11.8 9.23e-01 1.25e-01h  4
 279 -2.6134715e-01 7.98e-03 6.20e-04  -7.5 2.06e+02 -11.3 1.00e+00 1.00e+00H  1
iter    objective    inf_pr   inf_du lg(mu)  ||d||  lg(rg) alpha_du alpha_pr  ls
 280 -2.6134713e-01 1.60e-01 1.90e-03  -7.5 9.71e+01    -  9.55e-01 1.00e+00h  1
 281 -2.6134712e-01 3.13e-01 4.01e-04  -7.5 1.61e+02 -11.8 1.00e+00 1.00e+00h  1
 282 -2.6134713e-01 3.71e-01 4.96e-03  -7.5 4.87e+02 -12.3 1.00e+00 1.00e+00H  1
 283 -2.6134714e-01 1.88e+00 8.39e-01  -7.5 1.50e+04 -12.8 1.43e-01 2.34e-02h  4
 284 -2.6134724e-01 1.03e+01 7.39e-03  -7.5 9.04e+02 -12.3 1.00e+00 1.00e+00h  1
 285 -2.6134739e-01 1.50e+01 9.63e-01  -7.5 2.73e+04 -12.8 8.09e-02 2.26e-02h  3
 286 -2.6134759e-01 1.91e+01 1.77e+00  -7.5 4.37e+04 -13.3 6.41e-02 1.30e-02h  3
 287 -2.6134814e-01 3.05e+01 1.41e+00  -7.5 2.99e+03    -  1.00e+00 3.95e-01h  2
 288 -2.6134891e-01 3.42e+01 8.10e-01  -7.5 2.40e+03    -  2.64e-01 4.60e-01h  2
 289 -2.6134899e-01 2.28e-01 1.17e+00  -7.5 1.58e+02    -  4.52e-01 1.00e+00h  1
iter    objective    inf_pr   inf_du lg(mu)  ||d||  lg(rg) alpha_du alpha_pr  ls
 290 -2.6134902e-01 3.28e-01 6.84e-05  -7.5 5.13e+01    -  1.00e+00 1.00e+00h  1
 291 -2.6134939e-01 5.77e+00 2.70e-01  -7.5 4.83e+02    -  1.14e-01 1.00e+00h  1
 292 -2.6134946e-01 9.12e-02 4.84e-04  -7.5 7.43e+01 -11.1 1.00e+00 1.00e+00h  1
 293 -2.6134990e-01 4.34e+00 9.28e-01  -7.5 2.41e+03    -  7.97e-01 2.21e-01h  3
 294 -2.6135040e-01 7.17e+00 3.03e-01  -7.5 1.13e+03    -  1.00e+00 5.00e-01h  2
 295 -2.6135083e-01 3.40e+00 2.25e-02  -7.5 4.56e+02    -  1.00e+00 1.00e+00h  1
 296 -2.6135091e-01 1.17e-01 8.23e-04  -7.5 8.17e+01    -  1.00e+00 1.00e+00h  1
 297 -2.6135091e-01 9.72e-05 1.07e-06  -7.5 2.56e+00    -  1.00e+00 1.00e+00h  1
 298 -2.6135091e-01 1.89e-10 8.06e-13  -7.5 1.31e-03    -  1.00e+00 1.00e+00h  1
 299 -2.6135294e-01 2.99e+00 2.36e+00  -9.0 2.03e+03    -  4.68e-01 2.11e-01h  1
iter    objective    inf_pr   inf_du lg(mu)  ||d||  lg(rg) alpha_du alpha_pr  ls
 300 -2.6135586e-01 5.86e+01 6.92e-01  -9.0 4.13e+03    -  3.30e-01 4.52e-01h  1
 301 -2.6135697e-01 4.01e+01 3.40e+00  -9.0 1.52e+03    -  1.83e-01 5.33e-01h  1
 302 -2.6135754e-01 7.34e+00 1.96e+01  -9.0 3.49e+02    -  6.66e-02 8.71e-01h  1
 303 -2.6135857e-01 3.26e+01 1.15e+00  -9.0 1.30e+03 -11.5 5.41e-01 1.00e+00h  1
 304 -2.6135914e-01 4.16e+01 7.90e-01  -9.0 2.85e+03    -  3.13e-01 3.46e-01h  1
 305 -2.6135985e-01 1.03e+02 9.40e+00  -9.0 3.94e+03    -  9.66e-02 7.60e-01h  1
 306 -2.6136089e-01 3.14e+01 1.87e+01  -9.0 1.12e+03 -12.0 7.47e-04 7.79e-01h  1
 307 -2.6136090e-01 1.91e+01 1.03e+01  -9.0 7.89e+02    -  4.31e-01 4.49e-01h  1
 308 -2.6136120e-01 1.70e+01 7.91e+00  -9.0 1.77e+03    -  4.91e-01 2.33e-01h  1
 309 -2.6136136e-01 1.89e+01 6.25e+00  -9.0 2.99e+03    -  6.24e-01 2.11e-01h  1
iter    objective    inf_pr   inf_du lg(mu)  ||d||  lg(rg) alpha_du alpha_pr  ls
 310 -2.6136143e-01 1.89e+01 5.93e+00  -9.0 4.87e+03    -  8.25e-01 5.79e-02h  3
 311 -2.6136149e-01 1.85e+01 5.53e+00  -9.0 3.54e+03    -  1.99e-01 6.75e-02h  2
 312 -2.6136208e-01 6.49e+01 1.87e+00  -9.0 3.07e+03    -  2.46e-01 6.60e-01h  1
 313 -2.6136212e-01 5.27e+01 1.13e+01  -9.0 1.43e+03 -10.7 4.93e-05 2.01e-01h  1
 314 -2.6136210e-01 4.28e+01 9.16e+00  -9.0 9.14e+02    -  2.92e-01 1.88e-01h  1
 315 -2.6136228e-01 9.44e+00 4.33e-02  -9.0 8.96e+02    -  4.12e-04 1.00e+00h  1
 316 -2.6136230e-01 1.56e-03 2.84e-02  -9.0 6.06e+00  -6.7 1.68e-01 1.00e+00h  1
 317 -2.6136230e-01 9.99e-10 1.24e-07  -9.0 3.29e-03  -7.1 1.00e+00 1.00e+00h  1
 318 -2.6136230e-01 1.55e-09 2.43e-10  -9.0 9.88e-03  -7.6 1.00e+00 1.00e+00h  1

Number of Iterations....: 318

                                   (scaled)                 (unscaled)
Objective...............:  -2.6136230169845387e-01   -2.6136230169845387e-01
Dual infeasibility......:   2.4292064527295043e-10    2.4292064527295043e-10
Constraint violation....:   8.9510146670295804e-10    1.5461409930139780e-09
Complementarity.........:   9.0909091510015705e-10    9.0909091510015705e-10
Overall NLP error.......:   9.0909091510015705e-10    1.5461409930139780e-09


Number of objective function evaluations             = 499
Number of objective gradient evaluations             = 319
Number of equality constraint evaluations            = 499
Number of inequality constraint evaluations          = 500
Number of equality constraint Jacobian evaluations   = 324
Number of inequality constraint Jacobian evaluations = 324
Number of Lagrangian Hessian evaluations             = 318
Total CPU secs in IPOPT (w/o function evaluations)   =    635.667
Total CPU secs in NLP function evaluations           =     12.384

EXIT: Optimal Solution Found.
